5 6 89
5 4 1 2 1 5 3 5 4 3 4 1 17 17 37 38 56 56 74 74 88 
6 5 1 5 2 4 2 4 3 4 4 5 5 2 18 18 32 32 44 44 62 62 74 75 89 
4 3 1 3 2 2 2 2 3 12 30 30 50 50 68 68 86 
4 1 1 1 2 3 3 1 3 13 35 35 53 53 67 67 85 
11 5 1 1 1 1 1 2 1 2 1 4 2 2 2 2 2 3 3 5 5 5 5 0 2 2 7 7 13 13 14 14 15 17 18 31 37 37 41 50 51 72 74 74 75 
7 4 1 3 1 3 1 5 3 5 3 3 4 3 4 0 1 1 7 7 12 28 32 32 38 62 67 67 69 
